(declare-fun ExpandObjSwitcher () Real)
(declare-fun CreateAsClass () Bool)
(declare-fun ExpandObjSwitcher_2 () Real)
(declare-fun Constructed_Argument_t () String)
(assert (= ExpandObjSwitcher 8.0))
(assert CreateAsClass)
(assert (not (= ExpandObjSwitcher_2 0.0)))
(assert (= ExpandObjSwitcher_2 1.0))
(assert (not (= Constructed_Argument_t "string")))
(assert (not (= Constructed_Argument_t "number")))
(assert (= Constructed_Argument_t "boolean"))
(check-sat)
